Instance Name : r101
Date : 2022-07-18
Solution
Route 1 : 72 75 22 74 58
Route 2 : 36 47 19 8 46 60 89
Route 3 : 2 21 73 41 56 4
Route 4 : 63 64 49 48
Route 5 : 52 6
Route 6 : 92 42 15 87 57 97 13
Route 7 : 45 82 18 84 96
Route 8 : 33 29 78 34 35 77
Route 9 : 59 98 16 86 17
Route 10 : 65 71 81 50 68
Route 11 : 62 11 90 20 32 70
Route 12 : 27 31 88 7 10
Route 13 : 28 12 40 53 26
Route 14 : 14 44 38 43 91 100
Route 15 : 39 23 67 55 25
Route 16 : 5 83 61 85 37 93
Route 17 : 69 76 79 3 54 24 80
Route 18 : 30 51 9 66 1
Route 19 : 95 99 94
